start_domain = 4;
target_domain = 14;
vnflist_size = 7;
vnflist = [10,3,4,2,2,4,10];
vnf_arcs = [|1,2|2,3|3,4|4,5|5,6|6,7|];
proximity_to_source = [0,0,1,1,0,0,0];
proximity_to_destination = [0,0,0,0,1,1,0];
n_domain_constraints = 2;
domain_constraints = [|2,1,1,1|2,3,1,1|];
